p cnf 20 11
e 1 0
a 2 0
e 3 0
a 4 5 6 0
e 7 0
a 8 0
e 9 10 11 12 0
a 13 14 15 0
e 16 0
a 17 0
e 18 19 0
a 20 0
-14 -9 -1 13 0
7 -8 13 -17 0
19 20 -7 -14 0
4 -14 0
18 -14 -6 -1 0
3 -17 7 2 -13 0
16 -7 -15 17 0
-3 -11 -4 -14 -8 0
-15 18 13 -16 0
4 13 11 -8 16 0
19 18 8 -20 0
